nN = 8;
nR = 24;
nH = 2;

a = [[15, 18, 18, 21, 25, 19, 17, 23, 18, 25, 24, 19, 20, 19, 16, 20, 23, 19, 23, 23, 20, 22, 24, 19], [16, 15, 19, 15, 16, 18, 16, 19, 20, 24, 21, 25, 24, 17, 24, 16, 16, 19, 18, 19, 22, 22, 21, 16], [17, 22, 24, 19, 21, 23, 23, 20, 16, 23, 20, 18, 18, 23, 21, 23, 16, 15, 23, 23, 22, 22, 19, 16], [17, 19, 15, 16, 16, 22, 15, 21, 18, 20, 15, 15, 17, 24, 16, 15, 16, 24, 19, 15, 17, 15, 19, 23], [15, 21, 25, 22, 16, 18, 23, 20, 18, 18, 17, 16, 16, 23, 21, 19, 18, 21, 20, 17, 25, 23, 16, 25], [22, 16, 15, 20, 25, 15, 18, 17, 23, 17, 15, 16, 18, 25, 23, 25, 25, 18, 16, 22, 16, 16, 25, 16], [17, 16, 21, 15, 19, 24, 16, 24, 16, 25, 17, 22, 21, 20, 18, 23, 16, 17, 16, 15, 18, 24, 19, 15], [16, 16, 18, 20, 23, 15, 25, 17, 20, 18, 25, 17, 22, 21, 15, 19, 16, 20, 24, 24, 19, 25, 15, 19]];
c = [[[0, 0, 0, 0, 0, 0, 0, 0, 0, 0, 0, 0, 0, 0, 0, 0, 0, 0, 0, 0, 0, 0, 0, 0], [37, 50, 47, 30, 47, 50, 41, 50, 46, 44, 37, 48, 31, 34, 45, 44, 45, 32, 30, 42, 34, 45, 34, 36], [47, 40, 36, 34, 45, 48, 39, 47, 34, 42, 41, 32, 37, 42, 42, 41, 40, 40, 46, 43, 44, 40, 41, 40], [40, 42, 30, 49, 49, 46, 38, 32, 33, 36, 46, 47, 30, 48, 36, 33, 32, 33, 46, 49, 33, 33, 42, 48], [37, 34, 43, 34, 34, 33, 39, 35, 40, 42, 38, 44, 37, 42, 36, 48, 40, 38, 38, 38, 37, 46, 45, 49], [34, 31, 49, 32, 32, 43, 47, 33, 37, 38, 49, 44, 40, 40, 46, 33, 44, 49, 34, 48, 32, 42, 42, 40], [39, 33, 36, 37, 37, 38, 32, 42, 49, 46, 45, 34, 49, 49, 33, 37, 42, 35, 31, 38, 33, 45, 36, 32], [44, 44, 38, 30, 35, 34, 39, 42, 40, 35, 40, 31, 43, 47, 39, 45, 45, 30, 48, 32, 30, 35, 37, 39]], [[0, 0, 0, 0, 0, 0, 0, 0, 0, 0, 0, 0, 0, 0, 0, 0, 0, 0, 0, 0, 0, 0, 0, 0], [0, 0, 0, 0, 0, 0, 0, 0, 0, 0, 0, 0, 0, 0, 0, 0, 0, 0, 0, 0, 0, 0, 0, 0], [46, 35, 43, 38, 31, 43, 34, 44, 49, 40, 48, 38, 37, 49, 34, 44, 36, 32, 32, 44, 32, 45, 30, 35], [38, 38, 37, 41, 34, 32, 34, 33, 30, 31, 45, 47, 41, 30, 42, 33, 43, 50, 30, 43, 38, 39, 45, 49], [47, 43, 47, 33, 35, 30, 50, 38, 44, 46, 31, 31, 45, 48, 37, 30, 37, 43, 44, 42, 46, 33, 46, 42], [44, 44, 36, 43, 41, 35, 47, 39, 45, 42, 46, 46, 33, 33, 41, 43, 46, 49, 34, 31, 43, 37, 32, 45], [49, 36, 43, 39, 38, 42, 43, 38, 50, 40, 42, 38, 47, 44, 30, 33, 41, 37, 37, 32, 44, 37, 37, 34], [36, 47, 33, 46, 35, 48, 37, 31, 43, 34, 32, 41, 38, 37, 38, 31, 36, 30, 33, 35, 32, 39, 37, 31]], [[0, 0, 0, 0, 0, 0, 0, 0, 0, 0, 0, 0, 0, 0, 0, 0, 0, 0, 0, 0, 0, 0, 0, 0], [0, 0, 0, 0, 0, 0, 0, 0, 0, 0, 0, 0, 0, 0, 0, 0, 0, 0, 0, 0, 0, 0, 0, 0], [0, 0, 0, 0, 0, 0, 0, 0, 0, 0, 0, 0, 0, 0, 0, 0, 0, 0, 0, 0, 0, 0, 0, 0], [47, 48, 38, 41, 50, 40, 44, 35, 42, 49, 38, 30, 43, 33, 38, 47, 48, 43, 43, 33, 49, 43, 31, 36], [32, 39, 38, 35, 43, 49, 44, 39, 41, 40, 42, 34, 49, 31, 36, 35, 47, 31, 36, 44, 31, 48, 35, 32], [39, 48, 35, 30, 49, 30, 46, 42, 46, 44, 45, 38, 45, 34, 31, 38, 40, 48, 32, 41, 40, 39, 34, 40], [35, 47, 50, 49, 40, 50, 39, 37, 31, 50, 43, 38, 47, 45, 33, 42, 31, 32, 35, 50, 41, 31, 38, 48], [46, 49, 35, 44, 36, 42, 50, 31, 35, 50, 30, 50, 43, 49, 33, 45, 45, 48, 46, 41, 44, 32, 45, 42]], [[0, 0, 0, 0, 0, 0, 0, 0, 0, 0, 0, 0, 0, 0, 0, 0, 0, 0, 0, 0, 0, 0, 0, 0], [0, 0, 0, 0, 0, 0, 0, 0, 0, 0, 0, 0, 0, 0, 0, 0, 0, 0, 0, 0, 0, 0, 0, 0], [0, 0, 0, 0, 0, 0, 0, 0, 0, 0, 0, 0, 0, 0, 0, 0, 0, 0, 0, 0, 0, 0, 0, 0], [0, 0, 0, 0, 0, 0, 0, 0, 0, 0, 0, 0, 0, 0, 0, 0, 0, 0, 0, 0, 0, 0, 0, 0], [36, 49, 44, 42, 49, 47, 34, 47, 39, 40, 41, 45, 48, 48, 48, 49, 34, 48, 32, 42, 39, 33, 42, 34], [42, 50, 31, 40, 30, 40, 38, 42, 33, 31, 41, 44, 41, 44, 37, 35, 34, 39, 41, 40, 45, 35, 35, 43], [48, 32, 44, 47, 40, 34, 50, 38, 33, 39, 45, 37, 31, 48, 43, 50, 50, 42, 34, 47, 31, 40, 41, 41], [31, 36, 31, 37, 33, 36, 42, 39, 49, 34, 49, 33, 37, 40, 32, 38, 30, 33, 38, 36, 45, 45, 43, 37]], [[0, 0, 0, 0, 0, 0, 0, 0, 0, 0, 0, 0, 0, 0, 0, 0, 0, 0, 0, 0, 0, 0, 0, 0], [0, 0, 0, 0, 0, 0, 0, 0, 0, 0, 0, 0, 0, 0, 0, 0, 0, 0, 0, 0, 0, 0, 0, 0], [0, 0, 0, 0, 0, 0, 0, 0, 0, 0, 0, 0, 0, 0, 0, 0, 0, 0, 0, 0, 0, 0, 0, 0], [0, 0, 0, 0, 0, 0, 0, 0, 0, 0, 0, 0, 0, 0, 0, 0, 0, 0, 0, 0, 0, 0, 0, 0], [0, 0, 0, 0, 0, 0, 0, 0, 0, 0, 0, 0, 0, 0, 0, 0, 0, 0, 0, 0, 0, 0, 0, 0], [46, 34, 45, 44, 40, 44, 30, 46, 35, 35, 47, 37, 35, 37, 30, 34, 35, 39, 46, 40, 40, 31, 40, 32], [50, 42, 34, 46, 38, 30, 46, 48, 45, 49, 44, 40, 48, 30, 40, 42, 42, 33, 31, 36, 34, 38, 33, 34], [46, 48, 44, 37, 33, 36, 48, 42, 30, 43, 32, 46, 46, 35, 30, 38, 49, 47, 33, 38, 48, 49, 49, 35]], [[0, 0, 0, 0, 0, 0, 0, 0, 0, 0, 0, 0, 0, 0, 0, 0, 0, 0, 0, 0, 0, 0, 0, 0], [0, 0, 0, 0, 0, 0, 0, 0, 0, 0, 0, 0, 0, 0, 0, 0, 0, 0, 0, 0, 0, 0, 0, 0], [0, 0, 0, 0, 0, 0, 0, 0, 0, 0, 0, 0, 0, 0, 0, 0, 0, 0, 0, 0, 0, 0, 0, 0], [0, 0, 0, 0, 0, 0, 0, 0, 0, 0, 0, 0, 0, 0, 0, 0, 0, 0, 0, 0, 0, 0, 0, 0], [0, 0, 0, 0, 0, 0, 0, 0, 0, 0, 0, 0, 0, 0, 0, 0, 0, 0, 0, 0, 0, 0, 0, 0], [0, 0, 0, 0, 0, 0, 0, 0, 0, 0, 0, 0, 0, 0, 0, 0, 0, 0, 0, 0, 0, 0, 0, 0], [48, 36, 45, 35, 43, 39, 31, 48, 34, 34, 34, 41, 50, 30, 46, 41, 32, 42, 41, 40, 32, 35, 36, 33], [46, 31, 35, 40, 49, 30, 38, 41, 46, 44, 30, 47, 36, 41, 40, 47, 37, 49, 33, 30, 31, 42, 34, 50]], [[0, 0, 0, 0, 0, 0, 0, 0, 0, 0, 0, 0, 0, 0, 0, 0, 0, 0, 0, 0, 0, 0, 0, 0], [0, 0, 0, 0, 0, 0, 0, 0, 0, 0, 0, 0, 0, 0, 0, 0, 0, 0, 0, 0, 0, 0, 0, 0], [0, 0, 0, 0, 0, 0, 0, 0, 0, 0, 0, 0, 0, 0, 0, 0, 0, 0, 0, 0, 0, 0, 0, 0], [0, 0, 0, 0, 0, 0, 0, 0, 0, 0, 0, 0, 0, 0, 0, 0, 0, 0, 0, 0, 0, 0, 0, 0], [0, 0, 0, 0, 0, 0, 0, 0, 0, 0, 0, 0, 0, 0, 0, 0, 0, 0, 0, 0, 0, 0, 0, 0], [0, 0, 0, 0, 0, 0, 0, 0, 0, 0, 0, 0, 0, 0, 0, 0, 0, 0, 0, 0, 0, 0, 0, 0], [0, 0, 0, 0, 0, 0, 0, 0, 0, 0, 0, 0, 0, 0, 0, 0, 0, 0, 0, 0, 0, 0, 0, 0], [34, 47, 36, 39, 49, 31, 33, 35, 40, 46, 46, 34, 48, 46, 49, 42, 37, 48, 50, 43, 32, 37, 34, 30]], [[0, 0, 0, 0, 0, 0, 0, 0, 0, 0, 0, 0, 0, 0, 0, 0, 0, 0, 0, 0, 0, 0, 0, 0], [0, 0, 0, 0, 0, 0, 0, 0, 0, 0, 0, 0, 0, 0, 0, 0, 0, 0, 0, 0, 0, 0, 0, 0], [0, 0, 0, 0, 0, 0, 0, 0, 0, 0, 0, 0, 0, 0, 0, 0, 0, 0, 0, 0, 0, 0, 0, 0], [0, 0, 0, 0, 0, 0, 0, 0, 0, 0, 0, 0, 0, 0, 0, 0, 0, 0, 0, 0, 0, 0, 0, 0], [0, 0, 0, 0, 0, 0, 0, 0, 0, 0, 0, 0, 0, 0, 0, 0, 0, 0, 0, 0, 0, 0, 0, 0], [0, 0, 0, 0, 0, 0, 0, 0, 0, 0, 0, 0, 0, 0, 0, 0, 0, 0, 0, 0, 0, 0, 0, 0], [0, 0, 0, 0, 0, 0, 0, 0, 0, 0, 0, 0, 0, 0, 0, 0, 0, 0, 0, 0, 0, 0, 0, 0], [0, 0, 0, 0, 0, 0, 0, 0, 0, 0, 0, 0, 0, 0, 0, 0, 0, 0, 0, 0, 0, 0, 0, 0]]];

q = [[[8, 117], [24, 115], [13, 125], [22, 125], [19, 120], [11, 114], [23, 120], [22, 107], [6, 113], [12, 113], [6, 122], [7, 118], [13, 118], [22, 113], [14, 115], [25, 125], [10, 121], [17, 116], [17, 116], [12, 105], [24, 105], [8, 113], [23, 121], [18, 119]], [[9, 105], [16, 122], [20, 109], [24, 106], [8, 119], [20, 124], [13, 107], [15, 117], [25, 117], [19, 114], [25, 125], [20, 108], [21, 117], [6, 120], [17, 121], [25, 109], [13, 121], [21, 105], [23, 107], [8, 120], [8, 115], [5, 113], [21, 124], [18, 120]], [[13, 119], [23, 116], [19, 117], [13, 116], [21, 121], [12, 108], [19, 121], [8, 107], [25, 107], [21, 107], [24, 110], [8, 106], [23, 124], [25, 107], [7, 125], [15, 109], [6, 118], [12, 107], [20, 116], [15, 105], [7, 113], [13, 110], [18, 107], [20, 105]], [[17, 111], [9, 111], [22, 112], [6, 108], [16, 105], [6, 124], [9, 110], [17, 118], [24, 118], [18, 125], [13, 121], [15, 120], [19, 112], [18, 122], [14, 119], [17, 122], [25, 111], [7, 108], [15, 111], [5, 115], [19, 112], [10, 108], [14, 107], [24, 106]], [[16, 112], [5, 115], [7, 109], [7, 121], [24, 109], [19, 110], [5, 112], [23, 112], [24, 114], [22, 115], [25, 108], [17, 116], [10, 111], [23, 112], [18, 108], [9, 117], [24, 108], [25, 118], [5, 114], [23, 124], [22, 122], [18, 109], [14, 112], [9, 108]], [[20, 109], [14, 113], [13, 110], [22, 109], [15, 120], [6, 117], [21, 109], [16, 110], [10, 105], [8, 108], [16, 124], [5, 116], [19, 115], [6, 116], [12, 124], [18, 125], [7, 109], [7, 120], [10, 112], [22, 121], [24, 118], [16, 122], [9, 120], [10, 115]], [[19, 110], [21, 123], [22, 117], [23, 110], [20, 123], [10, 115], [15, 113], [19, 123], [12, 125], [8, 117], [14, 112], [7, 121], [25, 108], [15, 121], [10, 118], [25, 112], [9, 114], [25, 110], [17, 105], [8, 122], [9, 105], [17, 125], [12, 105], [20, 123]], [[8, 110], [21, 108], [12, 114], [18, 115], [23, 119], [7, 110], [10, 112], [9, 119], [19, 107], [9, 113], [23, 112], [18, 108], [18, 105], [25, 113], [23, 122], [21, 112], [23, 111], [8, 118], [18, 106], [17, 118], [8, 123], [10, 123], [20, 112], [7, 125]]];
Q = [[37, 280], [40, 277], [38, 271], [35, 274], [39, 272], [32, 277], [38, 278], [37, 274]];
